(set-info :source  loris-7.ddns.comp.nus.edu.sg/~project/hip/) 
;Variables declarations
(declare-fun v_bool_109_1662_primed () Int)
(declare-fun m2_2306 () Int)
(declare-fun r_primed () Int)
(declare-fun r () Int)
(declare-fun m2_primed () Int)
(declare-fun m2 () Int)
(declare-fun m1 () Int)
(declare-fun m1_primed () Int)
(declare-fun m1_2316 () Int)
(declare-fun m1_2305 () Int)
(declare-fun mx1 () Int)
(declare-fun flted_76_2335 () Int)
(declare-fun mx2_2336 () Int)
(declare-fun n () Int)
(declare-fun mx () Int)
(declare-fun res () Int)
(declare-fun v_int_112_1651_primed () Int)
;Relations declarations
;Axioms assertions
;Antecedent
(assert (= m2_primed m2_2306))
(assert (= m1_primed flted_76_2335))
(assert (> v_bool_109_1662_primed 0))
(assert (< m2_primed m1_2316))
(assert (= m2_2306 m2))
(assert (= m1_2305 m1))
(assert (<= m1 (+ 1 m2)))
(assert (<= (+ 0 m2) m1))
(assert (< 0 (+ m2 m1)))
(assert (= r_primed r))
(assert (= m2_primed m2))
(assert (= m1_2316 m1))
(assert (= (+ m1_primed 1) m1_2316))
(assert (= n m1_2305))
(assert (= mx mx1))
(assert (<= 0 m1_2305))
(assert (<= 0 mx1))
(assert (= (+ flted_76_2335 1) n))
(assert (<= 0 v_int_112_1651_primed))
(assert (<= v_int_112_1651_primed mx))
(assert (<= mx2_2336 mx))
(assert (<= 0 n))
(assert (<= 0 mx))
(assert (= res v_int_112_1651_primed))
;Negation of Consequence
(assert (not false))
(check-sat)